TASK = {FUNDS, SOLDIERS, DEFENSE, WEAPONRY_ART, ELITEARMY, 
   RAW_MATERIALS, CRAFTSMEN, CASTING, BRICKS, WALL};

duration = [10,10,25,25,10,20,15,20,10,20];
p = 14; % number of precedences
pre = 
  [| FUNDS, SOLDIERS
   | FUNDS, RAW_MATERIALS
   | FUNDS, CRAFTSMEN
   | FUNDS, BRICKS
   | SOLDIERS, WEAPONRY_ART
   | SOLDIERS, DEFENSE
   | WEAPONRY_ART, ELITEARMY
   | DEFENSE, ELITEARMY
   | RAW_MATERIALS, CASTING
   | CRAFTSMEN, CASTING 
   | CRAFTSMEN, WALL
   | BRICKS, WALL 
   | CASTING, WEAPONRY_ART
   | WALL, DEFENSE |];

LIU = {CASTING, RAW_MATERIALS, BRICKS, WALL};
ZHANG = {SOLDIERS, RAW_MATERIALS, BRICKS, CRAFTSMEN};
GUAN = {WEAPONRY_ART, DEFENSE, ELITEARMY, WALL};